p edge 24 45
e 1 2
e 1 3
e 1 5
e 1 6
e 1 10
e 1 22
e 2 3
e 2 4
e 2 6
e 2 7
e 2 10
e 2 11
e 2 13
e 2 16
e 2 18
e 2 21
e 2 23
e 2 24
e 3 4
e 3 5
e 3 7
e 3 8
e 3 9
e 3 12
e 3 19
e 3 21
e 3 22
e 4 14
e 4 15
e 4 17
e 4 18
e 5 14
e 5 24
e 7 8
e 7 11
e 7 12
e 7 19
e 7 20
e 7 23
e 8 9
e 8 13
e 8 17
e 12 15
e 12 16
e 16 20
